[2026-03-23T15:58:56.887Z] Pipeline "set_exp_3_exp_3_n017_c005_g003" → 2026_03_23_15_58_56_set_exp_3_exp_3_n017_c005_g003_max.sol
Set parameter WLSAccessID
Set parameter WLSSecret
Set parameter LicenseID to value 2792458
Set parameter LogFile to value "gurobi.log"
Using license file /root/gurobi.lic
Academic license 2792458 - for non-commercial use only - registered to an___@studenti.unipg.it

Gurobi Optimizer version 13.0.1 build v13.0.1rc0 (linux64 - "Ubuntu 24.04.4 LTS")
Copyright (c) 2026, Gurobi Optimization, LLC

Warning: Duplicate section found (read 'binary') - Is a variable name equal to an LP file format keyword?
Warning: Duplicate section found (read 'binary') - Is a variable name equal to an LP file format keyword?
Warning: Duplicate section found (read 'binary') - Is a variable name equal to an LP file format keyword?
Warning: Duplicate section found (read 'binary') - Is a variable name equal to an LP file format keyword?
Warning: Duplicate section found (read 'binary') - Is a variable name equal to an LP file format keyword?
Warning: Duplicate section found (read 'binary') - Is a variable name equal to an LP file format keyword?
Warning: Duplicate section found (read 'binary') - Is a variable name equal to an LP file format keyword?
Warning: Duplicate section found (read 'binary') - Is a variable name equal to an LP file format keyword?
Warning: Duplicate section found (read 'binary') - Is a variable name equal to an LP file format keyword?
Warning: Duplicate section found (read 'binary') - Is a variable name equal to an LP file format keyword?
Warning: Further warnings of this type will be omitted.
Read LP format model from file /root/bgw/data/uploads/2026_03_23_15_58_56_set_exp_3_exp_3_n017_c005_g003_max.lp
Reading time = 0.00 seconds
: 1678 rows, 222 columns, 4981 nonzeros

Using Gurobi shared library /opt/gurobi1301/linux64/lib/libgurobi.so.13.0.1

CPU model: AMD EPYC-Genoa Processor, instruction set [SSE2|AVX|AVX2|AVX512]
Thread count: 16 physical cores, 16 logical processors, using up to 16 threads

Academic license 2792458 - for non-commercial use only - registered to an___@studenti.unipg.it
Optimize a model with 1678 rows, 222 columns and 4981 nonzeros (Max)
Model fingerprint: 0xc1273f50
Model has 5 linear objective coefficients
Variable types: 22 continuous, 200 integer (200 binary)
Coefficient statistics:
  Matrix range     [1e+00, 2e+01]
  Objective range  [1e+00, 1e+00]
  Bounds range     [1e+00, 1e+00]
  RHS range        [1e+00, 2e+01]

Found heuristic solution: objective 5.0000000
Presolve removed 286 rows and 66 columns
Presolve time: 0.01s
Presolved: 1392 rows, 156 columns, 4288 nonzeros
Variable types: 0 continuous, 156 integer (148 binary)

Root relaxation: objective 2.000000e+01, 143 iterations, 0.01 seconds (0.00 work units)

    Nodes    |    Current Node    |     Objective Bounds      |     Work
 Expl Unexpl |  Obj  Depth IntInf | Incumbent    BestBd   Gap | It/Node Time

     0     0   20.00000    0   27    5.00000   20.00000   300%     -    0s
H    0     0                      10.0000000   20.00000   100%     -    0s
H    0     0                      11.0000000   20.00000  81.8%     -    0s
H    0     0                      12.0000000   20.00000  66.7%     -    0s
H    0     0                      15.0000000   20.00000  33.3%     -    0s
     0     0   20.00000    0   28   15.00000   20.00000  33.3%     -    0s
     0     0   20.00000    0   28   15.00000   20.00000  33.3%     -    0s
     0     0   20.00000    0   36   15.00000   20.00000  33.3%     -    0s
     0     0   20.00000    0   20   15.00000   20.00000  33.3%     -    0s
     0     0   20.00000    0   31   15.00000   20.00000  33.3%     -    0s
     0     0   20.00000    0   25   15.00000   20.00000  33.3%     -    0s
     0     0   19.93333    0   29   15.00000   19.93333  32.9%     -    0s
     0     0   19.93333    0   29   15.00000   19.93333  32.9%     -    0s
     0     0   19.00000    0   29   15.00000   19.00000  26.7%     -    0s
     0     0   19.00000    0   27   15.00000   19.00000  26.7%     -    0s
     0     0   19.00000    0   27   15.00000   19.00000  26.7%     -    0s
     0     0   19.00000    0   27   15.00000   19.00000  26.7%     -    0s
     0     0   19.00000    0   29   15.00000   19.00000  26.7%     -    0s
     0     0   19.00000    0   26   15.00000   19.00000  26.7%     -    0s
     0     0   19.00000    0   26   15.00000   19.00000  26.7%     -    0s
     0     0   19.00000    0   25   15.00000   19.00000  26.7%     -    0s
     0     2   19.00000    0   25   15.00000   19.00000  26.7%     -    0s

Cutting planes:
  Cover: 8
  Inf proof: 5

Explored 1083 nodes (46422 simplex iterations) in 0.63 seconds (0.67 work units)
Thread count was 16 (of 16 available processors)

Solution count 5: 15 12 11 ... 5

Optimal solution found (tolerance 1.00e-04)
Best objective 1.500000000000e+01, best bound 1.500000000000e+01, gap 0.0000%

Wrote result file '/root/bgw/data/results/2026_03_23_15_58_56_set_exp_3_exp_3_n017_c005_g003_max.sol'

